\* Source Pyomo model name=unknown *\

max 
x80:
+5 x19
+5 x20
+5 x21
+5 x22
+5 x23
+5 x24
-492.39055000000002 x44
-492.39055000000002 x47
-492.39055000000002 x50
-492.39055000000002 x53
-492.39055000000002 x56
-492.39055000000002 x59
-492.39055000000002 x62

s.t.

c_e_x81_:
+1 x43
+1 x44
+1 x45
-1 x66
= 0

c_e_x82_:
-1 x43
+1 x46
+1 x47
+1 x48
= 0

c_e_x83_:
-1 x46
+1 x49
+1 x50
+1 x51
-1 x56
= 0

c_e_x84_:
-1 x49
+1 x52
+1 x53
+1 x54
-1 x59
= 0

c_e_x85_:
-1 x52
+1 x55
-1 x62
= 0

c_e_x86_:
-1 x44
+1 x56
+1 x57
+1 x58
= 0

c_e_x87_:
-1 x47
-1 x57
+1 x59
+1 x60
+1 x61
= 0

c_e_x88_:
-1 x50
-1 x60
+1 x62
+1 x63
+1 x64
= 0

c_e_x89_:
-1 x53
-1 x63
+1 x65
= 0

c_e_x90_:
+1 x66
+1 x67
= 1

c_e_x91_:
+1 x45
+1 x48
+1 x51
+1 x54
+1 x55
+1 x58
+1 x61
+1 x64
+1 x65
+1 x67
= 1

c_e_x92_:
-1 x1
+1 x13
+1 x25
= 297

c_e_x93_:
+1 x14
-1 x2
-1 x25
+1 x26
= 0

c_e_x94_:
+1 x15
-1 x26
+1 x27
-1 x3
= 0

c_e_x95_:
+1 x16
-1 x27
+1 x28
-1 x4
= 0

c_e_x96_:
+1 x17
-1 x28
+1 x29
-1 x5
= 0

c_e_x97_:
+1 x18
-1 x29
+1 x30
-1 x6
= 0

c_e_x98_:
-1 x19
+1 x31
+1 x7
= 168

c_e_x99_:
-1 x20
-1 x31
+1 x32
+1 x8
= 0

c_e_x100_:
-1 x21
-1 x32
+1 x33
+1 x9
= 0

c_e_x101_:
+1 x10
-1 x22
-1 x33
+1 x34
= 0

c_e_x102_:
+1 x11
-1 x23
-1 x34
+1 x35
= 0

c_e_x103_:
+1 x12
-1 x24
-1 x35
+1 x36
= 0

c_e_x104_:
-1 x13
+1 x19
+1 x37
= 300

c_e_x105_:
-1 x14
+1 x20
-1 x37
+1 x38
= 0

c_e_x106_:
-1 x15
+1 x21
-1 x38
+1 x39
= 0

c_e_x107_:
-1 x16
+1 x22
-1 x39
+1 x40
= 0

c_e_x108_:
-1 x17
+1 x23
-1 x40
+1 x41
= 0

c_e_x109_:
-1 x18
+1 x24
-1 x41
+1 x42
= 0

c_u_x110_:
+1 x68
<= 1

c_u_x111_:
+1 x69
<= 1

c_u_x112_:
+1 x70
<= 1

c_u_x113_:
+1 x71
<= 1

c_u_x114_:
+1 x72
<= 1

c_u_x115_:
+1 x73
<= 1

c_u_x116_:
+1 x74
<= 1

c_u_x117_:
+1 x75
<= 1

c_u_x118_:
+1 x76
<= 1

c_u_x119_:
+1 x77
<= 1

c_u_x120_:
+1 x78
<= 1

c_u_x121_:
+1 x79
<= 1

c_u_x122_:
+1 x68
<= 0

c_u_x123_:
-1 x66
+1 x69
<= 0

c_u_x124_:
-1 x43
+1 x70
<= 0

c_u_x125_:
-1 x46
-1 x56
+1 x71
<= 0

c_u_x126_:
-1 x49
-1 x59
+1 x72
<= 0

c_u_x127_:
-1 x52
-1 x62
+1 x73
<= 0

c_u_x128_:
+1 x74
<= 0

c_u_x129_:
+1 x75
<= 0

c_u_x130_:
-1 x44
+1 x76
<= 0

c_u_x131_:
-1 x47
-1 x57
+1 x77
<= 0

c_u_x132_:
-1 x50
-1 x60
+1 x78
<= 0

c_u_x133_:
-1 x53
-1 x63
+1 x79
<= 0

c_u_x134_:
-1 x13
+35 x68
<= 0

c_u_x135_:
-1 x14
+35 x69
<= 0

c_u_x136_:
-1 x15
+35 x70
<= 0

c_u_x137_:
-1 x16
+35 x71
<= 0

c_u_x138_:
-1 x17
+35 x72
<= 0

c_u_x139_:
-1 x18
+35 x73
<= 0

c_u_x140_:
-1 x19
+50 x74
<= 0

c_u_x141_:
-1 x20
+50 x75
<= 0

c_u_x142_:
-1 x21
+50 x76
<= 0

c_u_x143_:
-1 x22
+50 x77
<= 0

c_u_x144_:
-1 x23
+50 x78
<= 0

c_u_x145_:
-1 x24
+50 x79
<= 0

c_u_x146_:
+1 x13
-300 x68
<= 0

c_u_x147_:
+1 x14
-300 x69
<= 0

c_u_x148_:
+1 x15
-300 x70
<= 0

c_u_x149_:
+1 x16
-300 x71
<= 0

c_u_x150_:
+1 x17
-300 x72
<= 0

c_u_x151_:
+1 x18
-300 x73
<= 0

c_u_x152_:
+1 x19
-300 x74
<= 0

c_u_x153_:
+1 x20
-300 x75
<= 0

c_u_x154_:
+1 x21
-300 x76
<= 0

c_u_x155_:
+1 x22
-300 x77
<= 0

c_u_x156_:
+1 x23
-300 x78
<= 0

c_u_x157_:
+1 x24
-300 x79
<= 0

c_l_x158_:
+1 x1
>= 99

c_l_x159_:
+1 x2
>= 99

c_l_x160_:
+1 x3
>= 99

c_l_x161_:
+1 x4
>= 99

c_l_x162_:
+1 x5
>= 99

c_l_x163_:
+1 x6
>= 99

c_l_x164_:
+1 x7
>= 39

c_l_x165_:
+1 x8
>= 39

c_l_x166_:
+1 x9
>= 39

c_l_x167_:
+1 x10
>= 39

c_l_x168_:
+1 x11
>= 39

c_l_x169_:
+1 x12
>= 39

c_u_x170_:
+1 x1
<= 99

c_u_x171_:
+1 x2
<= 99

c_u_x172_:
+1 x3
<= 99

c_u_x173_:
+1 x4
<= 99

c_u_x174_:
+1 x5
<= 99

c_u_x175_:
+1 x6
<= 99

c_u_x176_:
+1 x7
<= 39

c_u_x177_:
+1 x8
<= 39

c_u_x178_:
+1 x9
<= 39

c_u_x179_:
+1 x10
<= 39

c_u_x180_:
+1 x11
<= 39

c_u_x181_:
+1 x12
<= 39

c_l_x182_:
+1 x25
>= 0

c_l_x183_:
+1 x26
>= 0

c_l_x184_:
+1 x27
>= 0

c_l_x185_:
+1 x28
>= 0

c_l_x186_:
+1 x29
>= 0

c_l_x187_:
+1 x30
>= 0

c_l_x188_:
+1 x31
>= 0

c_l_x189_:
+1 x32
>= 0

c_l_x190_:
+1 x33
>= 0

c_l_x191_:
+1 x34
>= 0

c_l_x192_:
+1 x35
>= 0

c_l_x193_:
+1 x36
>= 0

c_u_x194_:
+1 x25
<= 594

c_u_x195_:
+1 x26
<= 594

c_u_x196_:
+1 x27
<= 594

c_u_x197_:
+1 x28
<= 594

c_u_x198_:
+1 x29
<= 594

c_u_x199_:
+1 x30
<= 594

c_u_x200_:
+1 x31
<= 351

c_u_x201_:
+1 x32
<= 351

c_u_x202_:
+1 x33
<= 351

c_u_x203_:
+1 x34
<= 351

c_u_x204_:
+1 x35
<= 351

c_u_x205_:
+1 x36
<= 351

c_u_x206_:
+1 x37
<= 300

c_u_x207_:
+1 x38
<= 300

c_u_x208_:
+1 x39
<= 300

c_u_x209_:
+1 x40
<= 300

c_u_x210_:
+1 x41
<= 300

c_u_x211_:
+1 x42
<= 300

c_l_x212_:
+1 x37
>= 0

c_l_x213_:
+1 x38
>= 0

c_l_x214_:
+1 x39
>= 0

c_l_x215_:
+1 x40
>= 0

c_l_x216_:
+1 x41
>= 0

c_l_x217_:
+1 x42
>= 0

c_e_ONE_VAR_CONSTANT: 
ONE_VAR_CONSTANT = 1.0

bounds
   0 <= x1 <= +inf
   0 <= x2 <= +inf
   0 <= x3 <= +inf
   0 <= x4 <= +inf
   0 <= x5 <= +inf
   0 <= x6 <= +inf
   0 <= x7 <= +inf
   0 <= x8 <= +inf
   0 <= x9 <= +inf
   0 <= x10 <= +inf
   0 <= x11 <= +inf
   0 <= x12 <= +inf
   0 <= x13 <= +inf
   0 <= x14 <= +inf
   0 <= x15 <= +inf
   0 <= x16 <= +inf
   0 <= x17 <= +inf
   0 <= x18 <= +inf
   0 <= x19 <= +inf
   0 <= x20 <= +inf
   0 <= x21 <= +inf
   0 <= x22 <= +inf
   0 <= x23 <= +inf
   0 <= x24 <= +inf
   0 <= x25 <= +inf
   0 <= x26 <= +inf
   0 <= x27 <= +inf
   0 <= x28 <= +inf
   0 <= x29 <= +inf
   0 <= x30 <= +inf
   0 <= x31 <= +inf
   0 <= x32 <= +inf
   0 <= x33 <= +inf
   0 <= x34 <= +inf
   0 <= x35 <= +inf
   0 <= x36 <= +inf
   0 <= x37 <= +inf
   0 <= x38 <= +inf
   0 <= x39 <= +inf
   0 <= x40 <= +inf
   0 <= x41 <= +inf
   0 <= x42 <= +inf
   0 <= x43 <= 1
   0 <= x44 <= 1
   0 <= x45 <= 1
   0 <= x46 <= 1
   0 <= x47 <= 1
   0 <= x48 <= 1
   0 <= x49 <= 1
   0 <= x50 <= 1
   0 <= x51 <= 1
   0 <= x52 <= 1
   0 <= x53 <= 1
   0 <= x54 <= 1
   0 <= x55 <= 1
   0 <= x56 <= 1
   0 <= x57 <= 1
   0 <= x58 <= 1
   0 <= x59 <= 1
   0 <= x60 <= 1
   0 <= x61 <= 1
   0 <= x62 <= 1
   0 <= x63 <= 1
   0 <= x64 <= 1
   0 <= x65 <= 1
   0 <= x66 <= 1
   0 <= x67 <= 1
   0 <= x68 <= 1
   0 <= x69 <= 1
   0 <= x70 <= 1
   0 <= x71 <= 1
   0 <= x72 <= 1
   0 <= x73 <= 1
   0 <= x74 <= 1
   0 <= x75 <= 1
   0 <= x76 <= 1
   0 <= x77 <= 1
   0 <= x78 <= 1
   0 <= x79 <= 1
binary
  x43
  x44
  x45
  x46
  x47
  x48
  x49
  x50
  x51
  x52
  x53
  x54
  x55
  x56
  x57
  x58
  x59
  x60
  x61
  x62
  x63
  x64
  x65
  x66
  x67
  x68
  x69
  x70
  x71
  x72
  x73
  x74
  x75
  x76
  x77
  x78
  x79
end
